p edge 40 86 15
v 2 5 30
v 2 22 29
v 2 8 12
v 4 4 16 38 39
v 3 15 25 28
v 5 9 14 17 26 36
v 2 18 19
v 4 21 23 24 37
v 1 27
v 3 2 32 35
v 3 7 13 34
v 1 40
v 2 20 31
v 2 3 11
v 4 1 6 10 33
e 1 11
e 1 12
e 1 13
e 1 29
e 1 30
e 1 40
e 2 4
e 2 20
e 2 39
e 3 11
e 3 12
e 3 21
e 3 35
e 3 37
e 3 38
e 5 12
e 5 13
e 5 14
e 5 30
e 5 32
e 5 39
e 6 8
e 6 28
e 6 33
e 6 40
e 7 15
e 7 18
e 7 40
e 8 13
e 8 15
e 8 21
e 8 31
e 8 32
e 8 40
e 9 26
e 9 32
e 10 12
e 10 13
e 10 36
e 11 21
e 12 14
e 12 16
e 12 19
e 12 29
e 12 36
e 12 38
e 12 39
e 13 23
e 13 30
e 14 15
e 14 20
e 14 23
e 14 30
e 14 36
e 14 37
e 14 39
e 15 20
e 15 32
e 15 40
e 16 19
e 16 23
e 16 29
e 16 36
e 17 28
e 17 39
e 18 31
e 18 32
e 18 36
e 18 37
e 18 39
e 19 27
e 19 30
e 19 35
e 20 32
e 22 29
e 23 24
e 23 25
e 23 37
e 24 36
e 25 33
e 27 35
e 29 36
e 29 39
e 32 34
e 38 40
e 39 40
